(benchmark gametime
:status unknown
:logic QF_AUFBV
:extrafuns ((gtINDEX74  BitVec[32]))
:extrafuns ((gtFIELD__bitsForTID0__gtAGG____anonstruct_D_Work_4  Array[32:32]))
:extrafuns ((gtINDEX75  BitVec[32]))
:extrafuns ((gtAGG__rtDWork  BitVec[32]))
:extrafuns ((gtINDEX72  BitVec[32]))
:extrafuns ((gtINDEX73  BitVec[32]))
:extrafuns ((gtINDEX70  BitVec[32]))
:extrafuns ((gtINDEX71  BitVec[32]))
:extrafuns ((gtINDEX68  BitVec[32]))
:extrafuns ((gtINDEX69  BitVec[32]))
:extrafuns ((gtINDEX67  BitVec[32]))
:extrafuns ((gtINDEX66  BitVec[32]))
:extrafuns ((gtINDEX65  BitVec[32]))
:extrafuns ((gtINDEX64  BitVec[32]))
:extrafuns ((gtINDEX62  BitVec[32]))
:extrafuns ((gtINDEX63  BitVec[32]))
:extrafuns ((gtINDEX60  BitVec[32]))
:extrafuns ((gtINDEX61  BitVec[32]))
:extrafuns ((gtINDEX58  BitVec[32]))
:extrafuns ((gtINDEX59  BitVec[32]))
:extrafuns ((gtINDEX56  BitVec[32]))
:extrafuns ((gtINDEX57  BitVec[32]))
:extrafuns ((gtINDEX54  BitVec[32]))
:extrafuns ((gtINDEX55  BitVec[32]))
:extrafuns ((gtINDEX53  BitVec[32]))
:extrafuns ((gtINDEX51  BitVec[32]))
:extrafuns ((gtINDEX52  BitVec[32]))
:extrafuns ((gtINDEX49  BitVec[32]))
:extrafuns ((gtINDEX50  BitVec[32]))
:extrafuns ((gtINDEX47  BitVec[32]))
:extrafuns ((gtINDEX48  BitVec[32]))
:extrafuns ((gtINDEX45  BitVec[32]))
:extrafuns ((gtINDEX46  BitVec[32]))
:extrafuns ((gtINDEX43  BitVec[32]))
:extrafuns ((gtINDEX44  BitVec[32]))
:extrafuns ((gtINDEX42  BitVec[32]))
:extrafuns ((gtINDEX41  BitVec[32]))
:extrafuns ((gtINDEX39  BitVec[32]))
:extrafuns ((gtINDEX40  BitVec[32]))
:extrafuns ((gtINDEX37  BitVec[32]))
:extrafuns ((gtINDEX38  BitVec[32]))
:extrafuns ((gtINDEX35  BitVec[32]))
:extrafuns ((gtINDEX36  BitVec[32]))
:extrafuns ((gtINDEX34  BitVec[32]))
:extrafuns ((gtINDEX33  BitVec[32]))
:extrafuns ((gtINDEX32  BitVec[32]))
:extrafuns ((gtINDEX31  BitVec[32]))
:extrafuns ((gtINDEX30  BitVec[32]))
:extrafuns ((gtINDEX29  BitVec[32]))
:extrafuns ((gtINDEX27  BitVec[32]))
:extrafuns ((gtINDEX28  BitVec[32]))
:extrafuns ((gtINDEX25  BitVec[32]))
:extrafuns ((gtINDEX26  BitVec[32]))
:extrafuns ((gtINDEX23  BitVec[32]))
:extrafuns ((gtINDEX24  BitVec[32]))
:extrafuns ((gtINDEX21  BitVec[32]))
:extrafuns ((gtINDEX22  BitVec[32]))
:extrafuns ((gtINDEX19  BitVec[32]))
:extrafuns ((gtINDEX20  BitVec[32]))
:extrafuns ((gtINDEX18  BitVec[32]))
:extrafuns ((gtINDEX16  BitVec[32]))
:extrafuns ((gtINDEX17  BitVec[32]))
:extrafuns ((gtINDEX14  BitVec[32]))
:extrafuns ((gtINDEX15  BitVec[32]))
:extrafuns ((gtINDEX12  BitVec[32]))
:extrafuns ((gtINDEX13  BitVec[32]))
:extrafuns ((gtINDEX10  BitVec[32]))
:extrafuns ((gtINDEX11  BitVec[32]))
:extrafuns ((gtINDEX8  BitVec[32]))
:extrafuns ((gtINDEX9  BitVec[32]))
:extrafuns ((gtINDEX7  BitVec[32]))
:extrafuns ((gtINDEX6  BitVec[32]))
:extrafuns ((gtINDEX4  BitVec[32]))
:extrafuns ((gtINDEX5  BitVec[32]))
:extrafuns ((gtINDEX2  BitVec[32]))
:extrafuns ((gtINDEX3  BitVec[32]))
:extrafuns ((gtINDEX0  BitVec[32]))
:extrafuns ((gtINDEX1  BitVec[32]))
:extrafuns ((gtFIELD__is_Eng__gtAGG____anonstruct_bitsForTID0_5_1_  Array[32:1]))
:extrafuns ((gtFIELD__is_Eng__gtAGG____anonstruct_bitsForTID0_5_2_  Array[32:1]))
:extrafuns ((sf_previousEvent_1_  BitVec[32]))
:extrafuns ((sfEvent__2_  BitVec[32]))
:extrafuns ((gtFIELD__is_Eng__gtAGG____anonstruct_bitsForTID0_5  Array[32:1]))
:extrafuns ((gtFIELD__sent__gtAGG____anonstruct_D_Work_4_1_  Array[32:32]))
:extrafuns ((gtFIELD__sent__gtAGG____anonstruct_D_Work_4_2_  Array[32:32]))
:extrafuns ((gtFIELD__is_active_Eng__gtAGG____anonstruct_bitsForTID0_5  Array[32:1]))
:extrafuns ((gtFIELD__is_active_PURI__gtAGG____anonstruct_bitsForTID0_5  Array[32:1]))
:extrafuns ((sfEvent__1_  BitVec[32]))
:extrafuns ((gtFIELD__is_PVRP__gtAGG____anonstruct_bitsForTID0_5  Array[32:2]))
:extrafuns ((gtFIELD__is_active_PVRP__gtAGG____anonstruct_bitsForTID0_5  Array[32:1]))
:extrafuns ((gtFIELD__is_PPVARP__gtAGG____anonstruct_bitsForTID0_5  Array[32:2]))
:extrafuns ((gtFIELD__is_active_PPVARP__gtAGG____anonstruct_bitsForTID0_5  Array[32:1]))
:extrafuns ((gtFIELD__is_active_PLRI__gtAGG____anonstruct_bitsForTID0_5  Array[32:1]))
:extrafuns ((gtFIELD__is_PAVI__gtAGG____anonstruct_bitsForTID0_5  Array[32:3]))
:extrafuns ((gtFIELD__is_active_PAVI__gtAGG____anonstruct_bitsForTID0_5  Array[32:1]))
:extrafuns ((sfEvent_  BitVec[32]))
:extrafuns ((gtFIELD__sent__gtAGG____anonstruct_D_Work_4  Array[32:32]))
:extrapreds ((constraint132 ))
:extrapreds ((constraint131 ))
:extrapreds ((constraint130 ))
:extrapreds ((constraint129 ))
:extrapreds ((constraint128 ))
:extrapreds ((constraint127 ))
:extrapreds ((constraint126 ))
:extrapreds ((constraint125 ))
:extrapreds ((constraint124 ))
:extrapreds ((constraint123 ))
:extrapreds ((constraint122 ))
:extrapreds ((constraint121 ))
:extrapreds ((constraint120 ))
:extrapreds ((constraint119 ))
:extrapreds ((constraint118 ))
:extrapreds ((constraint117 ))
:extrapreds ((constraint116 ))
:extrapreds ((constraint115 ))
:extrapreds ((constraint114 ))
:extrapreds ((constraint113 ))
:extrapreds ((constraint112 ))
:extrapreds ((constraint111 ))
:extrapreds ((constraint110 ))
:extrapreds ((constraint109 ))
:extrapreds ((constraint108 ))
:extrapreds ((constraint107 ))
:extrapreds ((constraint106 ))
:extrapreds ((constraint105 ))
:extrapreds ((constraint104 ))
:extrapreds ((constraint103 ))
:extrapreds ((constraint102 ))
:extrapreds ((constraint101 ))
:extrapreds ((constraint100 ))
:extrapreds ((constraint99 ))
:extrapreds ((constraint98 ))
:extrapreds ((constraint97 ))
:extrapreds ((constraint96 ))
:extrapreds ((constraint95 ))
:extrapreds ((constraint94 ))
:extrapreds ((constraint93 ))
:extrapreds ((constraint92 ))
:extrapreds ((constraint91 ))
:extrapreds ((constraint90 ))
:extrapreds ((constraint89 ))
:extrapreds ((constraint88 ))
:extrapreds ((constraint87 ))
:extrapreds ((constraint86 ))
:extrapreds ((constraint85 ))
:extrapreds ((constraint84 ))
:extrapreds ((constraint83 ))
:extrapreds ((constraint82 ))
:extrapreds ((constraint81 ))
:extrapreds ((constraint80 ))
:extrapreds ((constraint79 ))
:extrapreds ((constraint78 ))
:extrapreds ((constraint77 ))
:extrapreds ((constraint76 ))
:extrapreds ((constraint75 ))
:extrapreds ((constraint74 ))
:extrapreds ((constraint73 ))
:extrapreds ((constraint72 ))
:extrapreds ((constraint71 ))
:extrapreds ((constraint70 ))
:extrapreds ((constraint69 ))
:extrapreds ((constraint68 ))
:extrapreds ((constraint67 ))
:extrapreds ((constraint66 ))
:extrapreds ((constraint65 ))
:extrapreds ((constraint64 ))
:extrapreds ((constraint63 ))
:extrapreds ((constraint62 ))
:extrapreds ((constraint61 ))
:extrapreds ((constraint60 ))
:extrapreds ((constraint59 ))
:extrapreds ((constraint58 ))
:extrapreds ((constraint57 ))
:extrapreds ((constraint56 ))
:extrapreds ((constraint55 ))
:extrapreds ((constraint54 ))
:extrapreds ((constraint53 ))
:extrapreds ((constraint52 ))
:extrapreds ((constraint51 ))
:extrapreds ((constraint50 ))
:extrapreds ((constraint49 ))
:extrapreds ((constraint48 ))
:extrapreds ((constraint47 ))
:extrapreds ((constraint46 ))
:extrapreds ((constraint45 ))
:extrapreds ((constraint44 ))
:extrapreds ((constraint43 ))
:extrapreds ((constraint42 ))
:extrapreds ((constraint41 ))
:extrapreds ((constraint40 ))
:extrapreds ((constraint39 ))
:extrapreds ((constraint38 ))
:extrapreds ((constraint37 ))
:extrapreds ((constraint36 ))
:extrapreds ((constraint35 ))
:extrapreds ((constraint34 ))
:extrapreds ((constraint33 ))
:extrapreds ((constraint32 ))
:extrapreds ((constraint31 ))
:extrapreds ((constraint30 ))
:extrapreds ((constraint29 ))
:extrapreds ((constraint28 ))
:extrapreds ((constraint27 ))
:extrapreds ((constraint26 ))
:extrapreds ((constraint25 ))
:extrapreds ((constraint24 ))
:extrapreds ((constraint23 ))
:extrapreds ((constraint22 ))
:extrapreds ((constraint21 ))
:extrapreds ((constraint20 ))
:extrapreds ((constraint19 ))
:extrapreds ((constraint18 ))
:extrapreds ((constraint17 ))
:extrapreds ((constraint16 ))
:extrapreds ((constraint15 ))
:extrapreds ((constraint14 ))
:extrapreds ((constraint13 ))
:extrapreds ((constraint12 ))
:extrapreds ((constraint11 ))
:extrapreds ((constraint10 ))
:extrapreds ((constraint9 ))
:extrapreds ((constraint8 ))
:extrapreds ((constraint7 ))
:extrapreds ((constraint6 ))
:extrapreds ((constraint5 ))
:extrapreds ((constraint4 ))
:extrapreds ((constraint3 ))
:extrapreds ((constraint2 ))
:extrapreds ((constraint1 ))
:extrapreds ((constraint0 ))
:formula
(flet ($x676 (and constraint0 constraint1 constraint2 constraint3 constraint4 constraint5 constraint6 constraint7 constraint8 constraint9 constraint10 constraint11 constraint12 constraint13 constraint14 constraint15 constraint16 constraint17 constraint18 constraint19 constraint20 constraint21 constraint22 constraint23 constraint24 constraint25 constraint26 constraint27 constraint28 constraint29 constraint30 constraint31 constraint32 constraint33 constraint34 constraint35 constraint36 constraint37 constraint38 constraint39 constraint40 constraint41 constraint42 constraint43 constraint44 constraint45 constraint46 constraint47 constraint48 constraint49 constraint50 constraint51 constraint52 constraint53 constraint54 constraint55 constraint56 constraint57 constraint58 constraint59 constraint60 constraint61 constraint62 constraint63 constraint64 constraint65 constraint66 constraint67 constraint68 constraint69 constraint70 constraint71 constraint72 constraint73 constraint74 constraint75 constraint76 constraint77 constraint78 constraint79 constraint80 constraint81 constraint82 constraint83 constraint84 constraint85 constraint86 constraint87 constraint88 constraint89 constraint90 constraint91 constraint92 constraint93 constraint94 constraint95 constraint96 constraint97 constraint98 constraint99 constraint100 constraint101 constraint102 constraint103 constraint104 constraint105 constraint106 constraint107 constraint108 constraint109 constraint110 constraint111 constraint112 constraint113 constraint114 constraint115 constraint116 constraint117 constraint118 constraint119 constraint120 constraint121 constraint122 constraint123 constraint124 constraint125 constraint126 constraint127 constraint128 constraint129 constraint130 constraint131 constraint132))
(flet ($x408 (= gtINDEX75 (select gtFIELD__bitsForTID0__gtAGG____anonstruct_D_Work_4 gtINDEX74)))
(flet ($x404 (= gtINDEX73 (select gtFIELD__bitsForTID0__gtAGG____anonstruct_D_Work_4 gtINDEX72)))
(flet ($x400 (= gtINDEX71 (select gtFIELD__bitsForTID0__gtAGG____anonstruct_D_Work_4 gtINDEX70)))
(flet ($x396 (= gtINDEX69 (select gtFIELD__bitsForTID0__gtAGG____anonstruct_D_Work_4 gtINDEX68)))
(flet ($x388 (= gtINDEX63 (select gtFIELD__bitsForTID0__gtAGG____anonstruct_D_Work_4 gtINDEX62)))
(flet ($x384 (= gtINDEX61 (select gtFIELD__bitsForTID0__gtAGG____anonstruct_D_Work_4 gtINDEX60)))
(flet ($x380 (= gtINDEX59 (select gtFIELD__bitsForTID0__gtAGG____anonstruct_D_Work_4 gtINDEX58)))
(flet ($x376 (= gtINDEX57 (select gtFIELD__bitsForTID0__gtAGG____anonstruct_D_Work_4 gtINDEX56)))
(flet ($x372 (= gtINDEX55 (select gtFIELD__bitsForTID0__gtAGG____anonstruct_D_Work_4 gtINDEX54)))
(flet ($x367 (= gtINDEX52 (select gtFIELD__bitsForTID0__gtAGG____anonstruct_D_Work_4 gtINDEX51)))
(flet ($x363 (= gtINDEX50 (select gtFIELD__bitsForTID0__gtAGG____anonstruct_D_Work_4 gtINDEX49)))
(flet ($x359 (= gtINDEX48 (select gtFIELD__bitsForTID0__gtAGG____anonstruct_D_Work_4 gtINDEX47)))
(flet ($x355 (= gtINDEX46 (select gtFIELD__bitsForTID0__gtAGG____anonstruct_D_Work_4 gtINDEX45)))
(flet ($x351 (= gtINDEX44 (select gtFIELD__bitsForTID0__gtAGG____anonstruct_D_Work_4 gtINDEX43)))
(flet ($x345 (= gtINDEX40 (select gtFIELD__bitsForTID0__gtAGG____anonstruct_D_Work_4 gtINDEX39)))
(flet ($x341 (= gtINDEX38 (select gtFIELD__bitsForTID0__gtAGG____anonstruct_D_Work_4 gtINDEX37)))
(flet ($x337 (= gtINDEX36 (select gtFIELD__bitsForTID0__gtAGG____anonstruct_D_Work_4 gtINDEX35)))
(flet ($x327 (= gtINDEX28 (select gtFIELD__bitsForTID0__gtAGG____anonstruct_D_Work_4 gtINDEX27)))
(flet ($x323 (= gtINDEX26 (select gtFIELD__bitsForTID0__gtAGG____anonstruct_D_Work_4 gtINDEX25)))
(flet ($x319 (= gtINDEX24 (select gtFIELD__bitsForTID0__gtAGG____anonstruct_D_Work_4 gtINDEX23)))
(flet ($x315 (= gtINDEX22 (select gtFIELD__bitsForTID0__gtAGG____anonstruct_D_Work_4 gtINDEX21)))
(flet ($x311 (= gtINDEX20 (select gtFIELD__bitsForTID0__gtAGG____anonstruct_D_Work_4 gtINDEX19)))
(flet ($x306 (= gtINDEX17 (select gtFIELD__bitsForTID0__gtAGG____anonstruct_D_Work_4 gtINDEX16)))
(flet ($x302 (= gtINDEX15 (select gtFIELD__bitsForTID0__gtAGG____anonstruct_D_Work_4 gtINDEX14)))
(flet ($x298 (= gtINDEX13 (select gtFIELD__bitsForTID0__gtAGG____anonstruct_D_Work_4 gtINDEX12)))
(flet ($x294 (= gtINDEX11 (select gtFIELD__bitsForTID0__gtAGG____anonstruct_D_Work_4 gtINDEX10)))
(flet ($x290 (= gtINDEX9 (select gtFIELD__bitsForTID0__gtAGG____anonstruct_D_Work_4 gtINDEX8)))
(flet ($x284 (= gtINDEX5 (select gtFIELD__bitsForTID0__gtAGG____anonstruct_D_Work_4 gtINDEX4)))
(flet ($x280 (= gtINDEX3 (select gtFIELD__bitsForTID0__gtAGG____anonstruct_D_Work_4 gtINDEX2)))
(flet ($x276 (= gtINDEX1 (select gtFIELD__bitsForTID0__gtAGG____anonstruct_D_Work_4 gtINDEX0)))
(let (?x260 (extract[0:0] bv1[32]))
(let (?x270 (store gtFIELD__is_Eng__gtAGG____anonstruct_bitsForTID0_5_1_ gtINDEX75 ?x260))
(flet ($x522 (iff constraint56 (= gtFIELD__is_Eng__gtAGG____anonstruct_bitsForTID0_5_2_ ?x270)))
(let (?x266 (select gtFIELD__is_Eng__gtAGG____anonstruct_bitsForTID0_5_1_ gtINDEX73))
(let (?x261 (store gtFIELD__is_Eng__gtAGG____anonstruct_bitsForTID0_5 gtINDEX71 ?x260))
(flet ($x516 (iff constraint53 (= gtFIELD__is_Eng__gtAGG____anonstruct_bitsForTID0_5_1_ ?x261)))
(let (?x257 (zero_extend[31] (select gtFIELD__is_Eng__gtAGG____anonstruct_bitsForTID0_5 gtINDEX69)))
(let (?x253 (store gtFIELD__sent__gtAGG____anonstruct_D_Work_4_1_ gtINDEX67 bv0[32]))
(flet ($x512 (iff constraint51 (= gtFIELD__sent__gtAGG____anonstruct_D_Work_4_2_ ?x253)))
(let (?x141 (bvmul bv4294967295[32] bv1[32]))
(flet ($x251 (= (select gtFIELD__sent__gtAGG____anonstruct_D_Work_4_1_ gtINDEX66) ?x141))
(flet ($x247 (= (select gtFIELD__sent__gtAGG____anonstruct_D_Work_4_1_ gtINDEX65) bv9[32]))
(flet ($x243 (= (select gtFIELD__sent__gtAGG____anonstruct_D_Work_4_1_ gtINDEX64) bv4[32]))
(let (?x239 (zero_extend[31] (select gtFIELD__is_Eng__gtAGG____anonstruct_bitsForTID0_5 gtINDEX63)))
(let (?x233 (select gtFIELD__is_active_Eng__gtAGG____anonstruct_bitsForTID0_5 gtINDEX61))
(let (?x227 (select gtFIELD__is_active_PURI__gtAGG____anonstruct_bitsForTID0_5 gtINDEX59))
(let (?x219 (select gtFIELD__is_PVRP__gtAGG____anonstruct_bitsForTID0_5 gtINDEX57))
(let (?x214 (select gtFIELD__is_active_PVRP__gtAGG____anonstruct_bitsForTID0_5 gtINDEX55))
(flet ($x211 (= (select gtFIELD__sent__gtAGG____anonstruct_D_Work_4_1_ gtINDEX53) bv0[32]))
(let (?x206 (select gtFIELD__is_PPVARP__gtAGG____anonstruct_bitsForTID0_5 gtINDEX52))
(let (?x201 (select gtFIELD__is_PPVARP__gtAGG____anonstruct_bitsForTID0_5 gtINDEX50))
(let (?x196 (select gtFIELD__is_PPVARP__gtAGG____anonstruct_bitsForTID0_5 gtINDEX48))
(let (?x191 (select gtFIELD__is_active_PPVARP__gtAGG____anonstruct_bitsForTID0_5 gtINDEX46))
(let (?x185 (select gtFIELD__is_active_PLRI__gtAGG____anonstruct_bitsForTID0_5 gtINDEX44))
(flet ($x180 (= (select gtFIELD__sent__gtAGG____anonstruct_D_Work_4_1_ gtINDEX42) bv0[32]))
(flet ($x176 (= (select gtFIELD__sent__gtAGG____anonstruct_D_Work_4_1_ gtINDEX41) bv0[32]))
(let (?x171 (select gtFIELD__is_PAVI__gtAGG____anonstruct_bitsForTID0_5 gtINDEX40))
(let (?x166 (select gtFIELD__is_PAVI__gtAGG____anonstruct_bitsForTID0_5 gtINDEX38))
(let (?x161 (select gtFIELD__is_active_PAVI__gtAGG____anonstruct_bitsForTID0_5 gtINDEX36))
(flet ($x153 (= gtFIELD__sent__gtAGG____anonstruct_D_Work_4_1_ (store gtFIELD__sent__gtAGG____anonstruct_D_Work_4 gtINDEX34 ?x141)))
(flet ($x150 (= (select gtFIELD__sent__gtAGG____anonstruct_D_Work_4 gtINDEX33) bv2[32]))
(flet ($x146 (= (select gtFIELD__sent__gtAGG____anonstruct_D_Work_4 gtINDEX32) bv1[32]))
(flet ($x142 (= (select gtFIELD__sent__gtAGG____anonstruct_D_Work_4 gtINDEX31) ?x141))
(flet ($x136 (= (select gtFIELD__sent__gtAGG____anonstruct_D_Work_4 gtINDEX30) bv9[32]))
(flet ($x131 (= (select gtFIELD__sent__gtAGG____anonstruct_D_Work_4 gtINDEX29) bv4[32]))
(let (?x127 (zero_extend[31] (select gtFIELD__is_Eng__gtAGG____anonstruct_bitsForTID0_5 gtINDEX28)))
(let (?x121 (select gtFIELD__is_active_Eng__gtAGG____anonstruct_bitsForTID0_5 gtINDEX26))
(let (?x115 (select gtFIELD__is_active_PURI__gtAGG____anonstruct_bitsForTID0_5 gtINDEX24))
(let (?x106 (select gtFIELD__is_PVRP__gtAGG____anonstruct_bitsForTID0_5 gtINDEX22))
(let (?x101 (select gtFIELD__is_active_PVRP__gtAGG____anonstruct_bitsForTID0_5 gtINDEX20))
(flet ($x98 (= (select gtFIELD__sent__gtAGG____anonstruct_D_Work_4 gtINDEX18) bv0[32]))
(let (?x92 (select gtFIELD__is_PPVARP__gtAGG____anonstruct_bitsForTID0_5 gtINDEX17))
(let (?x87 (select gtFIELD__is_PPVARP__gtAGG____anonstruct_bitsForTID0_5 gtINDEX15))
(let (?x82 (select gtFIELD__is_PPVARP__gtAGG____anonstruct_bitsForTID0_5 gtINDEX13))
(let (?x77 (select gtFIELD__is_active_PPVARP__gtAGG____anonstruct_bitsForTID0_5 gtINDEX11))
(let (?x71 (select gtFIELD__is_active_PLRI__gtAGG____anonstruct_bitsForTID0_5 gtINDEX9))
(flet ($x65 (= (select gtFIELD__sent__gtAGG____anonstruct_D_Work_4 gtINDEX7) bv0[32]))
(flet ($x61 (= (select gtFIELD__sent__gtAGG____anonstruct_D_Work_4 gtINDEX6) bv0[32]))
(let (?x56 (zero_extend[29] (select gtFIELD__is_PAVI__gtAGG____anonstruct_bitsForTID0_5 gtINDEX5)))
(let (?x50 (zero_extend[29] (select gtFIELD__is_PAVI__gtAGG____anonstruct_bitsForTID0_5 gtINDEX3)))
(let (?x43 (select gtFIELD__is_active_PAVI__gtAGG____anonstruct_bitsForTID0_5 gtINDEX1))
(flet ($x675 (and (iff constraint0 (not (= sfEvent_ bv8[32]))) (iff constraint1 (not (= (zero_extend[31] ?x43) bv0[32]))) (iff constraint2 (not (= ?x50 bv1[32]))) (iff constraint3 (= ?x56 bv2[32])) (iff constraint4 (not $x61)) (iff constraint5 (not $x65)) (iff constraint6 (not (= sfEvent_ bv5[32]))) (iff constraint7 (not (not (= (zero_extend[31] ?x71) bv0[32])))) (iff constraint8 (not (= (zero_extend[31] ?x77) bv0[32]))) (iff constraint9 (not (= (zero_extend[30] ?x82) bv1[32]))) (iff constraint10 (not (= (zero_extend[30] ?x87) bv2[32]))) (iff constraint11 (= (zero_extend[30] ?x92) bv3[32])) (iff constraint12 (not $x98)) (iff constraint13 (not (= (zero_extend[31] ?x101) bv0[32]))) (iff constraint14 (= (zero_extend[30] ?x106) bv1[32])) (iff constraint15 (not (= sfEvent_ bv0[32]))) (iff constraint16 (not (= sfEvent_ bv4[32]))) (iff constraint17 (not (not (= (zero_extend[31] ?x115) bv0[32])))) (iff constraint18 (not (= (zero_extend[31] ?x121) bv0[32]))) (iff constraint19 (= ?x127 bv1[32])) (iff constraint20 (not $x131)) (iff constraint21 (not $x136)) (iff constraint22 (not $x142)) (iff constraint23 (not $x146)) (iff constraint24 $x150) (iff constraint25 $x153) (iff constraint26 (= sf_previousEvent_1_ sfEvent_)) (iff constraint27 (= sfEvent__1_ bv3[32])) (iff constraint28 (not (= sfEvent__1_ bv8[32]))) (iff constraint29 (not (= (zero_extend[31] ?x161) bv0[32]))) (iff constraint30 (not (= (zero_extend[29] ?x166) bv1[32]))) (iff constraint31 (= (zero_extend[29] ?x171) bv2[32])) (iff constraint32 (not $x176)) (iff constraint33 (not $x180)) (iff constraint34 (not (= sfEvent__1_ bv5[32]))) (iff constraint35 (not (not (= (zero_extend[31] ?x185) bv0[32])))) (iff constraint36 (not (= (zero_extend[31] ?x191) bv0[32]))) (iff constraint37 (not (= (zero_extend[30] ?x196) bv1[32]))) (iff constraint38 (not (= (zero_extend[30] ?x201) bv2[32]))) (iff constraint39 (= (zero_extend[30] ?x206) bv3[32])) (iff constraint40 (not $x211)) (iff constraint41 (not (= (zero_extend[31] ?x214) bv0[32]))) (iff constraint42 (= (zero_extend[30] ?x219) bv1[32])) (iff constraint43 (not (= sfEvent__1_ bv0[32]))) (iff constraint44 (not (= sfEvent__1_ bv4[32]))) (iff constraint45 (not (not (= (zero_extend[31] ?x227) bv0[32])))) (iff constraint46 (not (= (zero_extend[31] ?x233) bv0[32]))) (iff constraint47 (= ?x239 bv1[32])) (iff constraint48 (not $x243)) (iff constraint49 (not $x247)) (iff constraint50 $x251) $x512 (iff constraint52 (= ?x257 bv1[32])) $x516 (iff constraint54 (= sfEvent__2_ sf_previousEvent_1_)) (iff constraint55 (= (zero_extend[31] ?x266) bv1[32])) $x522 (iff constraint57 (= gtINDEX0 gtAGG__rtDWork)) (iff constraint58 $x276) (iff constraint59 (= gtINDEX2 gtAGG__rtDWork)) (iff constraint60 $x280) (iff constraint61 (= gtINDEX4 gtAGG__rtDWork)) (iff constraint62 $x284) (iff constraint63 (= gtINDEX6 gtAGG__rtDWork)) (iff constraint64 (= gtINDEX7 gtAGG__rtDWork)) (iff constraint65 (= gtINDEX8 gtAGG__rtDWork)) (iff constraint66 $x290) (iff constraint67 (= gtINDEX10 gtAGG__rtDWork)) (iff constraint68 $x294) (iff constraint69 (= gtINDEX12 gtAGG__rtDWork)) (iff constraint70 $x298) (iff constraint71 (= gtINDEX14 gtAGG__rtDWork)) (iff constraint72 $x302) (iff constraint73 (= gtINDEX16 gtAGG__rtDWork)) (iff constraint74 $x306) (iff constraint75 (= gtINDEX18 gtAGG__rtDWork)) (iff constraint76 (= gtINDEX19 gtAGG__rtDWork)) (iff constraint77 $x311) (iff constraint78 (= gtINDEX21 gtAGG__rtDWork)) (iff constraint79 $x315) (iff constraint80 (= gtINDEX23 gtAGG__rtDWork)) (iff constraint81 $x319) (iff constraint82 (= gtINDEX25 gtAGG__rtDWork)) (iff constraint83 $x323) (iff constraint84 (= gtINDEX27 gtAGG__rtDWork)) (iff constraint85 $x327) (iff constraint86 (= gtINDEX29 gtAGG__rtDWork)) (iff constraint87 (= gtINDEX30 gtAGG__rtDWork)) (iff constraint88 (= gtINDEX31 gtAGG__rtDWork)) (iff constraint89 (= gtINDEX32 gtAGG__rtDWork)) (iff constraint90 (= gtINDEX33 gtAGG__rtDWork)) (iff constraint91 (= gtINDEX34 gtAGG__rtDWork)) (iff constraint92 (= gtINDEX35 gtAGG__rtDWork)) (iff constraint93 $x337) (iff constraint94 (= gtINDEX37 gtAGG__rtDWork)) (iff constraint95 $x341) (iff constraint96 (= gtINDEX39 gtAGG__rtDWork)) (iff constraint97 $x345) (iff constraint98 (= gtINDEX41 gtAGG__rtDWork)) (iff constraint99 (= gtINDEX42 gtAGG__rtDWork)) (iff constraint100 (= gtINDEX43 gtAGG__rtDWork)) (iff constraint101 $x351) (iff constraint102 (= gtINDEX45 gtAGG__rtDWork)) (iff constraint103 $x355) (iff constraint104 (= gtINDEX47 gtAGG__rtDWork)) (iff constraint105 $x359) (iff constraint106 (= gtINDEX49 gtAGG__rtDWork)) (iff constraint107 $x363) (iff constraint108 (= gtINDEX51 gtAGG__rtDWork)) (iff constraint109 $x367) (iff constraint110 (= gtINDEX53 gtAGG__rtDWork)) (iff constraint111 (= gtINDEX54 gtAGG__rtDWork)) (iff constraint112 $x372) (iff constraint113 (= gtINDEX56 gtAGG__rtDWork)) (iff constraint114 $x376) (iff constraint115 (= gtINDEX58 gtAGG__rtDWork)) (iff constraint116 $x380) (iff constraint117 (= gtINDEX60 gtAGG__rtDWork)) (iff constraint118 $x384) (iff constraint119 (= gtINDEX62 gtAGG__rtDWork)) (iff constraint120 $x388) (iff constraint121 (= gtINDEX64 gtAGG__rtDWork)) (iff constraint122 (= gtINDEX65 gtAGG__rtDWork)) (iff constraint123 (= gtINDEX66 gtAGG__rtDWork)) (iff constraint124 (= gtINDEX67 gtAGG__rtDWork)) (iff constraint125 (= gtINDEX68 gtAGG__rtDWork)) (iff constraint126 $x396) (iff constraint127 (= gtINDEX70 gtAGG__rtDWork)) (iff constraint128 $x400) (iff constraint129 (= gtINDEX72 gtAGG__rtDWork)) (iff constraint130 $x404) (iff constraint131 (= gtINDEX74 gtAGG__rtDWork)) (iff constraint132 $x408)))
(and $x675 $x676))))))))))))))))))))))))))))))))))))))))))))))))))))))))))))))))))))))))))))))))))))
)
